9 9
0 2 2 4 100 100 6 5 100 
2 0 4 2 100 100 100 5 5 
2 4 0 2 100 100 4 3 100 
4 2 2 0 100 100 100 3 3 
100 100 100 100 0 2 6 2 2 
100 100 100 100 2 0 8 4 4 
6 100 4 100 6 8 0 4 100 
5 5 3 3 2 4 4 0 100 
100 5 100 3 2 4 100 100 0 
